c IN1002 Introduction to Algorithms!
c top secret ID string d1d5fe0238
c 3 variables and 8 clauses
p cnf 3 8
c each line is a clause, 0 marks the end
2 0
1 -2 0
-2 -2 0
2 1 0
2 -1 0
-3 -1 0
3 -1 0
-3 -2 0
c Good luck!
